
Gurobi 10.0.1 (win64, Python) logging started Fri May 26 12:12:55 2023

Set parameter Username
Set parameter LogFile to value "gurobi.log"
Academic license - for non-commercial use only - expires 2024-05-25
